param n := 10;
param smallest_X := 1;
param smallest_Y := 1;
param biggest_X := 8;
param biggest_Y := 12;

param scale := 1000;

set S := "S2C" "S2CPro" "S3";

param I :=
"S2C" 0.305891
"S2CPro" 0.755891
"S3" 0.76198;

param MC := 
"S2C" 28.45
"S2CPro" 34.31
"S3" 40.32;

param RMAX :=
"S2C" 1200
"S2CPro" 3200
"S3" 3200;

param X :=
1 1
2 3
3 1
4 3
5 4
6 5
7 8
8 2
9 8
10 1;

param Y := 
1 1
2 1
3 2
4 5
5 4
6 2
7 12
8 9
9 3
10 7;